Minimize
  - 44 y_0 - 31 y_2 - 37 y_3 - 33 y_4 - 47 y_5 - 37 y_6 - 39 y_7 - 18 y_8
   - 18 y_9 + 89 x_0_1 + 47 x_0_2 + 69 x_0_3 + 37 x_0_5 + 70 x_0_8
   + 64 x_0_9 + 63 x_1_2 + 74 x_1_3 + 66 x_1_4 + 78 x_1_7 + 25 x_2_3
   + 33 x_2_5 + 12 x_2_6 + 61 x_2_7 + 30 x_2_8 + 27 x_2_9 + 36 x_3_4
   + 42 x_3_5 + 86 x_3_7 + 37 x_3_8 + 39 x_3_9 + 28 x_4_5 + 19 x_4_6
   + 51 x_4_7 + 33 x_4_9 + 65 x_5_7 + 59 x_5_9 + 69 x_6_7 + 73 x_7_8
   + 67 x_7_9 + 7 x_8_9 + 304 Constant
Subject To
 c_0: y_7 = 1
 c_1_0: y_0 >= 1
 c_1_1: y_1 >= 1
 c_1_2: y_2 >= 1
 c_1_3: y_3 >= 1
 c_1_4: y_4 >= 1
 c_1_5: y_5 >= 1
 c_1_6: y_6 >= 1
 c_1_7: y_7 >= 1
 c_1_8: y_8 + y_9 >= 1
 c_1_9: y_8 + y_9 >= 1
 c_2_0: - 2 y_0 + x_0_1 + x_0_2 + x_0_3 + x_0_5 + x_0_8 + x_0_9 = 0
 c_2_1: - 2 y_1 + x_0_1 + x_1_2 + x_1_3 + x_1_4 + x_1_7 = 0
 c_2_2: - 2 y_2 + x_0_2 + x_1_2 + x_2_3 + x_2_5 + x_2_6 + x_2_7 + x_2_8
   + x_2_9 = 0
 c_2_3: - 2 y_3 + x_0_3 + x_1_3 + x_2_3 + x_3_4 + x_3_5 + x_3_7 + x_3_8
   + x_3_9 = 0
 c_2_4: - 2 y_4 + x_1_4 + x_3_4 + x_4_5 + x_4_6 + x_4_7 + x_4_9 = 0
 c_2_5: - 2 y_5 + x_0_5 + x_2_5 + x_3_5 + x_4_5 + x_5_7 + x_5_9 = 0
 c_2_6: - 2 y_6 + x_2_6 + x_4_6 + x_6_7 = 0
 c_2_7: - 2 y_7 + x_1_7 + x_2_7 + x_3_7 + x_4_7 + x_5_7 + x_6_7 + x_7_8
   + x_7_9 = 0
 c_2_8: - 2 y_8 + x_0_8 + x_2_8 + x_3_8 + x_7_8 + x_8_9 = 0
 c_2_9: - 2 y_9 + x_0_9 + x_2_9 + x_3_9 + x_4_9 + x_5_9 + x_7_9 + x_8_9
   = 0
Bounds
 Constant = 1
Binaries
 y_0 y_1 y_2 y_3 y_4 y_5 y_6 y_7 y_8 y_9 x_0_1 x_0_2 x_0_3 x_0_5 x_0_8
 x_0_9 x_1_2 x_1_3 x_1_4 x_1_7 x_2_3 x_2_5 x_2_6 x_2_7 x_2_8 x_2_9 x_3_4
 x_3_5 x_3_7 x_3_8 x_3_9 x_4_5 x_4_6 x_4_7 x_4_9 x_5_7 x_5_9 x_6_7 x_7_8
 x_7_9 x_8_9
End
